************************************************************************
file with basedata            : cm152_.bas
initial value random generator: 1649085265
************************************************************************
projects                      :  1
jobs (incl. supersource/sink ):  18
horizon                       :  89
RESOURCES
  - renewable                 :  2   R
  - nonrenewable              :  2   N
  - doubly constrained        :  0   D
************************************************************************
PROJECT INFORMATION:
pronr.  #jobs rel.date duedate tardcost  MPM-Time
    1     16      0       33       15       33
************************************************************************
PRECEDENCE RELATIONS:
jobnr.    #modes  #successors   successors
   1        1          3           2   3   4
   2        1          3           5   6   7
   3        1          3          11  12  17
   4        1          2           7  16
   5        1          3           8   9  16
   6        1          3           8  10  11
   7        1          1          14
   8        1          2          12  14
   9        1          2          15  17
  10        1          2          12  14
  11        1          2          13  16
  12        1          1          13
  13        1          1          15
  14        1          2          15  17
  15        1          1          18
  16        1          1          18
  17        1          1          18
  18        1          0        
************************************************************************
REQUESTS/DURATIONS:
jobnr. mode duration  R 1  R 2  N 1  N 2
------------------------------------------------------------------------
  1      1     0       0    0    0    0
  2      1     6       4    0    7    5
  3      1    10       4    0    7    8
  4      1     6       5    0    8    9
  5      1     1       0    4    1    6
  6      1     7       7    0    9    4
  7      1     5       0   10    8    9
  8      1    10       0    6    2    6
  9      1     4       3    0    5    8
 10      1     5       0    4    6    5
 11      1     9       0    1    3    3
 12      1     3       0    4    8    3
 13      1     3       0    3    8    3
 14      1     3       0    9    1    2
 15      1     2       3    0    2    4
 16      1     8       6    0    5    4
 17      1     7       0    6    5    6
 18      1     0       0    0    0    0
************************************************************************
RESOURCEAVAILABILITIES:
  R 1  R 2  N 1  N 2
   14   14   85   85
************************************************************************
